src/LKH/IO/anjos-80-01.tour
NAME : anjos-80-01.-190.tour
COMMENT : Length = -190
COMMENT : Found by LKH [Keld Helsgaun] Sun Apr 13 17:05:00 2025
TYPE : TOUR
DIMENSION : 80
TOUR_SECTION
1
35
69
33
73
31
77
74
63
39
41
56
76
20
13
58
10
43
51
40
55
18
42
27
12
25
2
62
54
34
61
46
19
49
29
14
72
4
7
30
36
15
22
71
78
6
26
59
17
80
70
16
44
45
50
57
5
32
24
67
68
21
47
9
48
23
66
75
52
53
8
37
38
28
3
65
11
64
60
79
-1
EOF
